[VALIDATOR STDOUT]
Checking plan: /home/jfan5/Safety-gen/runs/benchmark/optic/blocksworld_20260201_170613/blocksworld/optic_results/bw_ops3_n06_seed6001.plan
Plan executed successfully - checking goal
Plan valid
Final value: 16 

Successful plans:
Value: 16
 /home/jfan5/Safety-gen/runs/benchmark/optic/blocksworld_20260201_170613/blocksworld/optic_results/bw_ops3_n06_seed6001.plan 16
